param num_overman := 150;
param num_shortwork := 50;

param: strength :=
1 2000
2 1500
3 1000
;

param: recruit :=
1 500
2 800
3 500
;

param: lessonewaste :=
1 0.25
2 0.2
3 0.1
;

param: moreonewaste :=
1 0.1
2 0.05
3 0.05
;

param: costredundancy :=
1 200
2 500
3 500
;

param: costoverman :=
1 1500
2 2000
3 3000
;

param: costshort :=
1 500
2 400
3 400
;

param requirement: 1 2 3 :=
1 1000 1400 1000
2 500 2000 1500
3 0 2500 2000
;
